p cnf 10 27
-5 5 -2 0
6 -10 0
10 -5 4 -10 0
-6 0
1 -5 -1 6 0
10 -6 0
-6 5 -3 0
-2 0
-10 0
-7 -5 -4 0
1 -4 7 0
-4 5 0
-8 8 5 0
-8 3 6 0
-5 -4 6 0
-6 -4 0
-6 3 -3 -10 0
-5 -2 0
-8 1 -6 3 0
-5 0
6 0
8 0
9 -5 -4 -3 0
1 0
4 0
-8 0
9 -6 -10 -1 0
